(set-logic QF_S)
(declare-fun var0 () String)
(declare-fun var1 () String)
(declare-fun var2 () String)
(declare-fun var3 () String)
(declare-fun var4 () String)
(declare-fun var5 () String)
(declare-fun var6 () String)
(declare-fun var7 () String)
(declare-fun var8 () String)
(declare-fun var9 () String)
(declare-fun var10 () String)
(declare-fun var11 () String)
(declare-fun var12 () String)
(declare-fun var13 () String)
(declare-fun var14 () String)
(declare-fun var15 () String)
(declare-fun var16 () String)
(declare-fun var17 () String)
(declare-fun var18 () String)
(declare-fun var19 () String)
(declare-fun var20 () String)
(declare-fun var21 () String)
(declare-fun var22 () String)
(declare-fun var23 () String)
(declare-fun var24 () String)
(declare-fun var25 () String)
(declare-fun var26 () String)
(declare-fun var27 () String)
(declare-fun var28 () String)
(declare-fun var29 () String)
(declare-fun var30 () String)
(declare-fun var31 () String)
(declare-fun var32 () String)
(declare-fun var33 () String)
(declare-fun var34 () String)
(declare-fun var35 () String)
(declare-fun var36 () String)
(declare-fun var37 () String)
(declare-fun var38 () String)
(declare-fun var39 () String)
(declare-fun var40 () String)
(declare-fun var41 () String)
(declare-fun var42 () String)
(declare-fun var43 () String)
(declare-fun var44 () String)
(declare-fun var45 () String)
(declare-fun var46 () String)
(declare-fun var47 () String)
(declare-fun var48 () String)
(declare-fun var49 () String)
(declare-fun var50 () String)
(declare-fun var51 () String)
(declare-fun var52 () String)
(declare-fun var53 () String)
(declare-fun var54 () String)
(declare-fun var55 () String)
(declare-fun var56 () String)
(declare-fun var57 () String)
(declare-fun var58 () String)
(declare-fun var59 () String)
(declare-fun var60 () String)
(assert (= var0 (str.++ var1 var2)))
(assert (= var2 (str.++ var3 var4)))
(assert (= var4 (str.++ var5 var6)))
(assert (= var6 (str.++ var7 var8)))
(assert (= var8 (str.++ var9 var10)))
(assert (= var10 (str.++ var11 var12)))
(assert (= var12 (str.++ var13 var14)))
(assert (= var14 (str.++ var15 var16)))
(assert (= var16 (str.++ var17 var18)))
(assert (= var18 (str.++ var19 var20)))
(assert (= var20 (str.++ var21 var22)))
(assert (= var22 (str.++ var23 var24)))
(assert (= var24 (str.++ var25 var26)))
(assert (= var26 (str.++ var27 var28)))
(assert (= var28 (str.++ var29 var30)))
(assert (= var30 (str.++ var31 var32)))
(assert (= var32 (str.++ var33 var34)))
(assert (= var34 (str.++ var35 var36)))
(assert (= var36 (str.++ var37 var38)))
(assert (= var38 (str.++ var39 var40)))
(assert (= var40 (str.++ var41 var42)))
(assert (= var42 (str.++ var43 var44)))
(assert (= var44 (str.++ var45 var46)))
(assert (= var46 (str.++ var47 var48)))
(assert (= var48 (str.++ var49 var50)))
(assert (= var50 (str.++ var51 var52)))
(assert (= var52 (str.++ var53 var54)))
(assert (= var54 (str.++ var55 var56)))
(assert (= var56 (str.++ var57 var58)))
(assert (= var58 (str.++ var59 var60)))
(assert (= var0 "solution"))
(assert (= "I" (str.at var5 354)))
(assert (= "w" (str.at var60 86)))
(assert (= "P" (str.at var2 141)))
(assert (= "[" (str.at var11 972)))
(assert (= "+" (str.at var29 988)))
(assert (= "`" (str.at var20 384)))
(assert (= "`" (str.at var1 540)))
(assert (= "7" (str.at var19 703)))
(assert (= "K" (str.at var7 228)))
(assert (= "m" (str.at var26 279)))
(assert (= "8" (str.at var18 893)))
(assert (= "I" (str.at var18 731)))
(assert (= "N" (str.at var51 824)))
(assert (= "O" (str.at var3 343)))
(assert (= "_" (str.at var18 982)))
(assert (= "`" (str.at var15 940)))
(assert (= "'" (str.at var19 959)))
(assert (= "H" (str.at var22 482)))
(assert (= "~" (str.at var59 492)))
(assert (= "R" (str.at var12 54)))
(assert (= "]" (str.at var35 194)))
(assert (= "H" (str.at var15 240)))
(assert (= "_" (str.at var48 182)))
(assert (= "h" (str.at var17 33)))
(assert (= "{" (str.at var54 241)))
(assert (= "~" (str.at var48 526)))
(assert (= "<" (str.at var9 862)))
(assert (= "N" (str.at var33 417)))
(assert (= "q" (str.at var34 101)))
(assert (= "X" (str.at var54 301)))
(assert (= "K" (str.at var7 291)))
(assert (= "[" (str.at var46 185)))
(assert (= "n" (str.at var8 186)))
(assert (= "r" (str.at var53 297)))
(assert (= "k" (str.at var43 191)))
(assert (= "," (str.at var7 747)))
(assert (= ";" (str.at var15 577)))
(assert (= "\\" (str.at var48 674)))
(assert (= "{" (str.at var34 465)))
(assert (= "p" (str.at var11 90)))
(assert (= "(" (str.at var16 199)))
(assert (= "B" (str.at var30 786)))
(assert (= "0" (str.at var30 184)))
(assert (= "`" (str.at var35 988)))
(assert (= "U" (str.at var44 213)))
(assert (= "k" (str.at var30 728)))
(assert (= "g" (str.at var7 311)))
(assert (= "Z" (str.at var9 307)))
(assert (= "s" (str.at var35 553)))
(assert (= "c" (str.at var28 146)))
(assert (= "V" (str.at var47 335)))
(assert (= "&" (str.at var34 493)))
(assert (= "+" (str.at var22 226)))
(assert (= "/" (str.at var8 595)))
(assert (= "E" (str.at var46 883)))
(assert (= "6" (str.at var51 48)))
(assert (= "v" (str.at var12 207)))
(assert (= "C" (str.at var30 30)))
(assert (= "(" (str.at var33 337)))
(assert (= "h" (str.at var25 6)))
(assert (= "Z" (str.at var49 320)))
(assert (= "H" (str.at var44 239)))
(assert (= "n" (str.at var55 723)))
(assert (= "7" (str.at var41 921)))
(assert (= "O" (str.at var18 840)))
(assert (= "%" (str.at var51 3)))
(assert (= "z" (str.at var39 224)))
(assert (= "X" (str.at var20 890)))
(assert (= "j" (str.at var20 136)))
(assert (= "}" (str.at var45 655)))
(assert (= "i" (str.at var52 469)))
(assert (= "E" (str.at var7 33)))
(assert (= "&" (str.at var44 185)))
(assert (= "@" (str.at var44 426)))
(assert (= "@" (str.at var31 360)))
(assert (= "5" (str.at var22 263)))
(assert (= "c" (str.at var38 455)))
(assert (= "Y" (str.at var9 245)))
(assert (= "W" (str.at var8 317)))
(assert (= "C" (str.at var18 894)))
(assert (= "@" (str.at var47 462)))
(assert (= "o" (str.at var54 160)))
(assert (= "m" (str.at var40 263)))
(assert (= "l" (str.at var2 604)))
(assert (= "9" (str.at var37 258)))
(assert (= ":" (str.at var13 455)))
(assert (= "w" (str.at var14 120)))
(assert (= "a" (str.at var0 466)))
(assert (= "1" (str.at var25 145)))
(assert (= "[" (str.at var59 152)))
(assert (= "=" (str.at var5 297)))
(assert (= "e" (str.at var29 306)))
(assert (= "_" (str.at var55 644)))
(assert (= "f" (str.at var49 951)))
(assert (= "w" (str.at var15 635)))
(assert (= "5" (str.at var40 304)))
(assert (= "1" (str.at var17 71)))
(assert (= "!" (str.at var49 45)))
(assert (= "t" (str.at var43 987)))
(assert (= "4" (str.at var54 178)))
(assert (= "b" (str.at var31 754)))
(assert (= "&" (str.at var4 829)))
(assert (= "0" (str.at var56 797)))
(assert (= "g" (str.at var29 934)))
(assert (= "?" (str.at var36 7)))
(assert (= "s" (str.at var55 640)))
(assert (= "#" (str.at var50 712)))
(assert (= ";" (str.at var26 614)))
(assert (= "P" (str.at var19 565)))
(assert (= "z" (str.at var24 191)))
(assert (= "T" (str.at var55 114)))
(assert (= "H" (str.at var48 782)))
(assert (= "p" (str.at var52 39)))
(assert (= "K" (str.at var12 155)))
(assert (= "/" (str.at var14 228)))
(assert (= "r" (str.at var0 256)))
(assert (= "=" (str.at var9 656)))
(assert (= "%" (str.at var22 495)))
(assert (= "j" (str.at var7 805)))
(assert (= "G" (str.at var17 443)))
(assert (= ")" (str.at var37 622)))
(assert (= "X" (str.at var0 328)))
(assert (= "i" (str.at var4 866)))
(assert (= "6" (str.at var17 970)))
(assert (= "_" (str.at var18 197)))
(assert (= "T" (str.at var48 491)))
(assert (= "k" (str.at var46 29)))
(assert (= "b" (str.at var0 475)))
(assert (= "(" (str.at var8 283)))
(assert (= "@" (str.at var29 280)))
(assert (= "Z" (str.at var35 537)))
(assert (= "g" (str.at var1 569)))
(assert (= "W" (str.at var46 73)))
(assert (= ">" (str.at var22 595)))
(assert (= "M" (str.at var17 24)))
(assert (= "?" (str.at var39 342)))
(assert (= ">" (str.at var29 200)))
(assert (= ")" (str.at var32 570)))
(assert (= "P" (str.at var10 989)))
(assert (= "t" (str.at var14 256)))
(assert (= "E" (str.at var50 93)))
(assert (= "&" (str.at var50 110)))
(assert (= "|" (str.at var13 266)))
(assert (= "_" (str.at var12 0)))
(assert (= "C" (str.at var46 753)))
(assert (= "C" (str.at var27 428)))
(assert (= "m" (str.at var38 121)))
(assert (= "w" (str.at var13 549)))
(assert (= "A" (str.at var25 848)))
(assert (= "p" (str.at var2 316)))
(assert (= "}" (str.at var37 718)))
(assert (= "I" (str.at var26 630)))
(assert (= "F" (str.at var13 743)))
(assert (= "U" (str.at var36 282)))
(assert (= "z" (str.at var60 257)))
(assert (= "B" (str.at var37 958)))
(assert (= "A" (str.at var3 128)))
(assert (= "_" (str.at var4 584)))
(assert (= "," (str.at var28 971)))
(assert (= "x" (str.at var37 725)))
(assert (= "," (str.at var6 518)))
(check-sat)